NAME : C14.591872.tour
COMMENT : Length = 591872
COMMENT : Found by LKH [Keld Helsgaun] Mon Dec 18 21:51:02 2017
TYPE : TOUR
DIMENSION : 111
TOUR_SECTION
1
33
34
35
37
40
39
38
36
32
102
44
43
42
41
55
54
57
59
61
107
99
100
101
98
97
96
95
94
93
106
63
75
73
62
65
69
56
58
60
111
76
2
3
92
89
86
85
84
83
109
24
14
18
19
20
16
17
15
13
110
70
67
68
66
64
91
90
88
87
108
48
50
53
51
52
49
46
45
47
105
6
4
8
5
7
9
10
12
11
104
21
22
23
25
26
28
27
29
31
30
103
82
79
77
72
71
74
78
80
81
-1
EOF
